data/mip_solutions/furman_sahinidis/reduced_transportation/10sp1_gurobi.sol
Elapsed time: 0.131551027298
Nodes explored: 54
Upper bound: 10.0
Lower bound: 10.0
y[0,2]=1
y[1,1]=1
y[1,2]=1
y[2,3]=1
y[2,4]=1
y[2,5]=1
y[3,3]=1
y[4,0]=1
y[4,2]=1
y[4,4]=1
q[0,4,2,4]=1120000.0
q[0,4,2,6]=46900.0
q[0,5,2,5]=640000.0
q[0,5,2,7]=26800.0
q[0,6,2,7]=166700.0
q[1,1,1,1]=11530.0
q[1,1,1,2]=576500.0
q[1,1,2,2]=1370.0
q[1,1,2,7]=210600.0
q[1,1,2,8]=-5.03035614888e-09
q[1,2,2,2]=798630.0
q[1,2,2,3]=201370.0
q[1,3,1,3]=807100.0
q[1,3,1,4]=7099.99999999
q[1,3,2,3]=585800.0
q[1,3,2,5]=3.49245965481e-09
q[1,4,1,4]=800000.0
q[1,4,2,5]=-6.65158597628e-09
q[2,2,3,4]=333200.0
q[2,2,4,2]=527000.0
q[2,2,4,3]=539800.0
q[2,3,5,8]=1960000.0
q[2,4,4,5]=222030.0
q[2,4,5,8]=1737970.0
q[2,5,5,8]=1120000.0
q[2,6,5,8]=560000.0
q[2,7,5,8]=1120000.0
q[3,0,0,3]=-3.96891423949e-10
q[3,0,1,1]=-1.81898940355e-11
q[3,0,3,4]=952000.0
q[3,0,3,6]=-1.19725882541e-08
q[3,1,3,4]=952000.0
q[3,2,3,3]=299600.0
q[3,2,3,4]=56000.0
q[3,2,3,5]=834400.0
q[3,2,3,6]=7.8980519902e-09
q[3,3,3,3]=1010800.0
q[3,3,3,6]=655200.0
q[3,4,3,5]=476000.0
q[4,3,0,3]=144500.0
q[4,3,0,4]=504000.0
q[4,3,2,3]=332830.0
q[4,3,4,3]=1304700.0
q[4,3,4,5]=65970.0
q[4,4,0,4]=507500.0
q[4,4,4,4]=1844500.0
q[4,5,0,5]=578000.0
q[4,5,4,5]=766000.0
q[4,6,0,6]=289000.0
q[4,6,0,7]=-4.7730281949e-09
q[4,6,2,6]=273100.0
q[4,6,2,7]=109900.0
q[4,7,0,7]=578000.0
q[4,7,2,7]=126000.0
q[4,7,2,8]=640000.0
